min: c;

c = 3.87422093478939 * u4_t1_h1 + 3.12074256074567 * u4_t1_h2 + 3.26164272347754 * u4_t1_h3 + 2.99071686468326 * u4_t1_h4 + 2.99071686468326 * u4_t10_h4 + 3.78911484916221 * u4_t1_h5 + 3.78911484916221 * u4_t10_h5 + 3.93584930284598 * u4_t1_h6 + 3.93584930284598 * u4_t10_h6 + 4.3918235403584 * u4_t1_h7 + 4.3918235403584 * u4_t10_h7 + 5.35657491584115 * u4_t1_h8 + 5.35657491584115 * u4_t9_h8 + 5.35657491584115 * u4_t10_h8 + 5.27440760790772 * u4_t9_h9 + 5.27440760790772 * u4_t10_h9 + 5.43940289782185 * u4_t9_h10 + 5.43940289782185 * u4_t10_h10 + 3.82322112434152 * u4_t2_h11 + 3.82322112434152 * u4_t4_h11 + 3.82322112434152 * u4_t9_h11 + 3.82322112434152 * u4_t10_h11 + 6.00344874896901 * u4_t2_h12 + 6.00344874896901 * u4_t3_h12 + 6.00344874896901 * u4_t4_h12 + 6.00344874896901 * u4_t8_h12 + 6.00344874896901 * u4_t9_h12 + 6.00344874896901 * u4_t10_h12 + 4.26308831924117 * u4_t2_h13 + 4.26308831924117 * u4_t3_h13 + 4.26308831924117 * u4_t4_h13 + 4.26308831924117 * u4_t8_h13 + 4.26308831924117 * u4_t9_h13 + 5.82226909964812 * u4_t2_h14 + 5.82226909964812 * u4_t3_h14 + 5.82226909964812 * u4_t4_h14 + 5.82226909964812 * u4_t8_h14 + 5.82226909964812 * u4_t9_h14 + 6.20644392433416 * u4_t2_h15 + 6.20644392433416 * u4_t3_h15 + 6.20644392433416 * u4_t4_h15 + 6.20644392433416 * u4_t8_h15 + 6.20644392433416 * u4_t9_h15 + 5.63174696943247 * u4_t2_h16 + 5.63174696943247 * u4_t3_h16 + 5.63174696943247 * u4_t4_h16 + 5.63174696943247 * u4_t5_h16 + 5.63174696943247 * u4_t8_h16 + 5.63174696943247 * u4_t9_h16 + 6.63198305899198 * u4_t2_h17 + 6.63198305899198 * u4_t3_h17 + 6.63198305899198 * u4_t5_h17 + 6.63198305899198 * u4_t8_h17 + 6.63198305899198 * u4_t9_h17 + 6.59344070270602 * u4_t2_h18 + 6.59344070270602 * u4_t3_h18 + 6.59344070270602 * u4_t5_h18 + 6.59344070270602 * u4_t8_h18 + 6.59344070270602 * u4_t9_h18 + 5.6437680611657 * u4_t2_h19 + 5.6437680611657 * u4_t3_h19 + 5.6437680611657 * u4_t6_h19 + 5.6437680611657 * u4_t8_h19 + 5.6437680611657 * u4_t9_h19 + 5.93098606117518 * u4_t2_h20 + 5.93098606117518 * u4_t6_h20 + 5.93098606117518 * u4_t9_h20 + 5.4217725742733 * u4_t6_h21 + 5.15051876347091 * u4_t6_h22 + 5.15051876347091 * u4_t7_h22 + 5.12666115880164 * u4_t6_h23 + 5.12666115880164 * u4_t7_h23;
0 <= u4_t1_h1 <= 1;
0 <= u4_t1_h2 <= 1;
0 <= u4_t1_h3 <= 1;
0 <= u4_t1_h4 <= 1;
0 <= u4_t1_h5 <= 1;
0 <= u4_t1_h6 <= 1;
0 <= u4_t1_h7 <= 1;
0 <= u4_t1_h8 <= 1;
u4_t1_h1 + u4_t1_h2 + u4_t1_h3 + u4_t1_h4 + u4_t1_h5 + u4_t1_h6 + u4_t1_h7 + u4_t1_h8 = 1;
0 <= u4_t2_h11 <= 1;
0 <= u4_t2_h12 <= 1;
0 <= u4_t2_h13 <= 1;
0 <= u4_t2_h14 <= 1;
0 <= u4_t2_h15 <= 1;
0 <= u4_t2_h16 <= 1;
0 <= u4_t2_h17 <= 1;
0 <= u4_t2_h18 <= 1;
0 <= u4_t2_h19 <= 1;
0 <= u4_t2_h20 <= 1;
u4_t2_h11 + u4_t2_h12 + u4_t2_h13 + u4_t2_h14 + u4_t2_h15 + u4_t2_h16 + u4_t2_h17 + u4_t2_h18 + u4_t2_h19 + u4_t2_h20 = 2;
0 <= u4_t3_h12 <= 1;
0 <= u4_t3_h13 <= 1;
0 <= u4_t3_h14 <= 1;
0 <= u4_t3_h15 <= 1;
0 <= u4_t3_h16 <= 1;
0 <= u4_t3_h17 <= 1;
0 <= u4_t3_h18 <= 1;
0 <= u4_t3_h19 <= 1;
u4_t3_h12 + u4_t3_h13 + u4_t3_h14 + u4_t3_h15 + u4_t3_h16 + u4_t3_h17 + u4_t3_h18 + u4_t3_h19 = 3;
0 <= u4_t4_h11 <= 1;
0 <= u4_t4_h12 <= 1;
0 <= u4_t4_h13 <= 1;
0 <= u4_t4_h14 <= 1;
0 <= u4_t4_h15 <= 1;
0 <= u4_t4_h16 <= 1;
u4_t4_h11 + u4_t4_h12 + u4_t4_h13 + u4_t4_h14 + u4_t4_h15 + u4_t4_h16 = 3;
0 <= u4_t5_h16 <= 1;
0 <= u4_t5_h17 <= 1;
0 <= u4_t5_h18 <= 1;
u4_t5_h16 + u4_t5_h17 + u4_t5_h18 = 1;
0 <= u4_t6_h19 <= 1;
0 <= u4_t6_h20 <= 1;
0 <= u4_t6_h21 <= 1;
0 <= u4_t6_h22 <= 1;
0 <= u4_t6_h23 <= 1;
u4_t6_h19 + u4_t6_h20 + u4_t6_h21 + u4_t6_h22 + u4_t6_h23 = 3;
0 <= u4_t7_h22 <= 1;
0 <= u4_t7_h23 <= 1;
u4_t7_h22 + u4_t7_h23 = 1;
0 <= u4_t8_h12 <= 1;
0 <= u4_t8_h13 <= 1;
0 <= u4_t8_h14 <= 1;
0 <= u4_t8_h15 <= 1;
0 <= u4_t8_h16 <= 1;
0 <= u4_t8_h17 <= 1;
0 <= u4_t8_h18 <= 1;
0 <= u4_t8_h19 <= 1;
u4_t8_h12 + u4_t8_h13 + u4_t8_h14 + u4_t8_h15 + u4_t8_h16 + u4_t8_h17 + u4_t8_h18 + u4_t8_h19 = 2;
0 <= u4_t9_h8 <= 1;
0 <= u4_t9_h9 <= 1;
0 <= u4_t9_h10 <= 1;
0 <= u4_t9_h11 <= 1;
0 <= u4_t9_h12 <= 1;
0 <= u4_t9_h13 <= 1;
0 <= u4_t9_h14 <= 1;
0 <= u4_t9_h15 <= 1;
0 <= u4_t9_h16 <= 1;
0 <= u4_t9_h17 <= 1;
0 <= u4_t9_h18 <= 1;
0 <= u4_t9_h19 <= 1;
0 <= u4_t9_h20 <= 1;
u4_t9_h8 + u4_t9_h9 + u4_t9_h10 + u4_t9_h11 + u4_t9_h12 + u4_t9_h13 + u4_t9_h14 + u4_t9_h15 + u4_t9_h16 + u4_t9_h17 + u4_t9_h18 + u4_t9_h19 + u4_t9_h20 = 2;
0 <= u4_t10_h4 <= 1;
0 <= u4_t10_h5 <= 1;
0 <= u4_t10_h6 <= 1;
0 <= u4_t10_h7 <= 1;
0 <= u4_t10_h8 <= 1;
0 <= u4_t10_h9 <= 1;
0 <= u4_t10_h10 <= 1;
0 <= u4_t10_h11 <= 1;
0 <= u4_t10_h12 <= 1;
u4_t10_h4 + u4_t10_h5 + u4_t10_h6 + u4_t10_h7 + u4_t10_h8 + u4_t10_h9 + u4_t10_h10 + u4_t10_h11 + u4_t10_h12 = 2;
